w = 10;
h = 10;
n = 6;
m = 10;
rect_size = [|
3, 3|
3, 4|
4, 3|
3, 6|
6, 3|
3, 7|
7, 3|
4, 4|
4, 6|
6, 4|];
rect_offset = [|
0, 0|
0, 0|
0, 0|
0, 0|
0, 0|
0, 0|
0, 0|
0, 0|
0, 0|
0, 0|];
shape = [{1}, {2}, {3}, {4}, {5}, {6}, {7}, {8}, {9}, {10}];
shapeind = [{1}, {2, 3}, {4, 5}, {6, 7}, {8}, {9, 10}];
ncopy = [1, 1, 1, 1, 1, 1];
c = 6;
